<?xml version = "1.0" standalone="yes"?>
<!-- This file has been generated by DOcplex version 2.23.222  -->
<CPLEXSolution version="1.0">
 <header
   problemName="CVRP"
   objectiveValue="10303.4"
  />
 <variables>
  <variable name="x_0_1" index="0" value="1.00000"/>
  <variable name="x_0_3" index="2" value="1.00000"/>
  <variable name="x_0_6" index="5" value="1.00000"/>
  <variable name="x_0_7" index="6" value="1.00000"/>
  <variable name="x_0_8" index="7" value="1.00000"/>
  <variable name="x_0_9" index="8" value="1.00000"/>
  <variable name="x_0_11" index="10" value="1.00000"/>
  <variable name="x_1_2" index="13" value="1.00000"/>
  <variable name="x_2_0" index="24" value="1.00000"/>
  <variable name="x_3_0" index="36" value="1.00000"/>
  <variable name="x_4_0" index="48" value="1.00000"/>
  <variable name="x_5_12" index="71" value="1.00000"/>
  <variable name="x_6_0" index="72" value="1.00000"/>
  <variable name="x_7_4" index="88" value="1.00000"/>
  <variable name="x_8_0" index="96" value="1.00000"/>
  <variable name="x_9_0" index="108" value="1.00000"/>
  <variable name="x_10_0" index="120" value="1.00000"/>
  <variable name="x_11_5" index="137" value="1.00000"/>
  <variable name="x_12_10" index="154" value="1.00000"/>
  <variable name="u_1" index="156" value="18.00000"/>
  <variable name="u_2" index="157" value="74.00000"/>
  <variable name="u_3" index="158" value="48.00000"/>
  <variable name="u_4" index="159" value="56.00000"/>
  <variable name="u_5" index="160" value="26.00000"/>
  <variable name="u_6" index="161" value="69.00000"/>
  <variable name="u_7" index="162" value="9.00000"/>
  <variable name="u_8" index="163" value="72.00000"/>
  <variable name="u_9" index="164" value="68.00000"/>
  <variable name="u_10" index="165" value="67.00000"/>
  <variable name="u_11" index="166" value="20.00000"/>
  <variable name="u_12" index="167" value="60.00000"/>
 </variables>
</CPLEXSolution>
